src/RACER/swarm_exploration/utils/lkh_mtsp_solver/resource/amtsp3_3.atsp
NAME : pairopt
TYPE : ACVRP
DIMENSION : 5
EDGE_WEIGHT_TYPE : EXPLICIT
EDGE_WEIGHT_FORMAT : FULL_MATRIX
CAPACITY : 102
VEHICLES : 2
EDGE_WEIGHT_SECTION
100000 -100000 -100000 100000 100000 
100000 100000 1000000 2649 226 
100000 1000000 100000 2870 -431 
0 0 0 100000 2821 
0 0 0 2821 100000 
DEMAND_SECTION
1 0
2 0
3 0
4 120
5 16
DEPOT_SECTION
1
EOF