src/RACER/swarm_exploration/utils/lkh_mtsp_solver/resource/amtsp3_3.tour
NAME : pairopt.-194819.tour
COMMENT : Length = -194819
COMMENT : Found by LKH-3 [Keld Helsgaun] Thu Mar 23 16:09:07 2023
TYPE : TOUR
DIMENSION : 21
TOUR_SECTION
1
3
13
14
15
7
16
18
19
20
4
21
2
11
9
17
8
5
6
12
10
-1
EOF
